Version identifier: 22.1.0.0 | 2022-03-09 | 1a383f8ce
CPXPARAM_Read_DataCheck                          1
Tried aggregator 2 times.
MIP Presolve eliminated 356245 rows and 502 columns.
MIP Presolve modified 147000 coefficients.
Aggregator did 200 substitutions.
Reduced MIP has 683299 rows, 60100 columns, and 2668697 nonzeros.
Reduced MIP has 60100 binaries, 0 generals, 0 SOSs, and 0 indicators.
Presolve time = 7.49 sec. (3526.07 ticks)
Probing fixed 2 vars, tightened 0 bounds.
Probing time = 6.75 sec. (2392.43 ticks)
Tried aggregator 1 time.
Detecting symmetries...
MIP Presolve eliminated 101 rows and 101 columns.
Reduced MIP has 683198 rows, 59999 columns, and 2663533 nonzeros.
Reduced MIP has 59999 binaries, 0 generals, 0 SOSs, and 0 indicators.
Presolve time = 4.52 sec. (2548.99 ticks)
Probing time = 0.73 sec. (209.53 ticks)
Clique table members: 1057980.
MIP emphasis: balance optimality and feasibility.
MIP search method: dynamic search.
Parallel mode: deterministic, using up to 4 threads.
Root relaxation solution time = 22.10 sec. (10717.64 ticks)

        Nodes                                         Cuts/
   Node  Left     Objective  IInf  Best Integer    Best Bound    ItCnt     Gap

      0     0        3.0000   417                      3.0000    58285         
      0     0        3.0000   164                   Cuts: 269    58587         
      0     0        3.0000   288                   Cuts: 627    59116         
      0     0        3.0000   138                  Cliques: 5    59130         
      0     0        3.0000   193                   Cuts: 322    59472         
Detecting symmetries...
      0     2        3.0000   117                      3.0000    59472         
Elapsed time = 193.34 sec. (74378.59 ticks, tree = 0.02 MB, solutions = 0)
      2     4        3.0000   139                      3.0000    59676         
      4     4        3.0000   107                      3.0000    59506         
      6     5        3.0000   128                      3.0000    59954         
      8     7        3.0000   125                      3.0000    59978         
     10     5        3.0000   136                      3.0000    59680         
     12    10        3.0000   125                      3.0000    60183         
     15    11        3.0000   104                      3.0000    60737         
     17    11        3.0000   104                      3.0000    60823         
     18    10        3.0879  2075                      3.0000    64381         
     24    19    infeasible                            3.0000    65936         
Elapsed time = 220.63 sec. (81353.88 ticks, tree = 21.83 MB, solutions = 0)
     28    23        3.0000    98                      3.0000    70196         
     32    27        3.0000   113                      3.0000    70481         
     38    31        3.0000   115                      3.0000    70705         
     45    32        3.0000   105                      3.0000    71046         
     48    33        3.0000   144                      3.0000    71379         
     55    31    infeasible                            3.0000    75167         
     57    35        3.0000   104                      3.0000    75361         
     64    10        3.0385  2668                      3.0000    75407         
     73    34    infeasible                            3.0000    91923         
     83    42        3.0000   134                      3.0000    91965         
Elapsed time = 291.72 sec. (94275.63 ticks, tree = 38.83 MB, solutions = 0)
     91    35        5.0000   719                      3.0000    94739         
    104    60        3.0000   134                      3.0000    95191         
    112    56        3.0000    68                      3.0000    95455         
    118    58        3.0000    68                      3.0000    95471         
    133    71    infeasible                            3.0000    95760         
    139    74        3.0000    64                      3.0000    96492         
    143    78        3.0000    88                      3.0000    97097         
    144    79        3.0000    80                      3.0000    97119         
    147    71        3.0055  1606                      3.0000   100581         
    148    85        5.0000   600                      3.0000   103278         
Elapsed time = 369.29 sec. (107136.25 ticks, tree = 36.32 MB, solutions = 0)
    155    92        5.0000   464                      3.0000   103478         
    165   102        5.0000   422                      3.0000   103511         
    175   112        5.0000   385                      3.0000   103523         
    185   122        5.0000   347                      3.0000   103542         
    195   132        5.0000   311                      3.0000   103587         
    205   142        5.0000   205                      3.0000   103646         
    215   152        5.0000    48                      3.0000   103693         
    217   154        5.0330  1977                      3.0000   104992         
    219    79        3.0220  1581                      3.0000   112732         
    220   156        3.0157  1622                      3.0000   124313         
Elapsed time = 673.29 sec. (154071.80 ticks, tree = 193.80 MB, solutions = 0)
    221   156        3.0769  2009                      3.0000   129743         
    222   157        5.0000   658                      3.0000   130988         
    231   166        5.0000   565                      3.0000   131074         
    241   176        5.0000   531                      3.0000   131095         
    251   186        5.0000   490                      3.0000   131147         
    261   196        5.0000   457                      3.0000   131176         
    271   206        5.0000   423                      3.0000   131198         
    281   216        5.0000   362                      3.0000   131286         
    291   226        5.0000   306                      3.0000   131379         
    301   236        5.0000   240                      3.0000   131459         
Elapsed time = 824.66 sec. (178972.73 ticks, tree = 618.69 MB, solutions = 0)
    312   246        5.0000   182                      3.0000   131511         
    318   253        5.0000   124                      3.0000   151768         
    325   260        5.0000    98                      3.0000   151783         
    327   262        5.0000    44                      3.0000   161457         
*   329   240      integral     0        5.0000        3.0000   165858   40.00%
    329   239        5.0000     0        5.0000        3.0000   165858   40.00%
    332   210        3.0000    68        5.0000        3.0000   170875   40.00%
    339    86    infeasible              5.0000        3.0000   185469   40.00%
    346    93        3.0000    80        5.0000        3.0000   165956   40.00%
    353    87        3.0000    76        5.0000        3.0000   185566   40.00%
*   355+   79                            3.0000        3.0000             0.00%
    357    87        3.0000    76        3.0000        3.0000   185589    0.00%
Elapsed time = 920.73 sec. (191539.24 ticks, tree = 57.54 MB, solutions = 2)
    360    90        3.0000    92        3.0000        3.0000   185618    0.00%
    365    95        3.0000    92        3.0000        3.0000   185650    0.00%
    370   156        5.0220  1848        3.0000        3.0000   128626    0.00%
    371    13        3.0330  2015        3.0000        3.0000   186897    0.00%

Clique cuts applied:  203
Zero-half cuts applied:  4

Root node processing (before b&c):
  Real time             =  192.10 sec. (73494.91 ticks)
Parallel b&c, 4 threads:
  Real time             = 4806.99 sec. (870993.77 ticks)
  Sync time (average)   =  200.38 sec.
  Wait time (average)   =    0.00 sec.
                          ------------
Total (root+branch&cut) = 4999.09 sec. (944488.68 ticks)
y[0] = 1.0
y[1] = 1.0
y[2] = 1.0
y[3] = 1.0
